3 3 2
30 0 30 2 15 0 34 1 9 2 4 0 28 2 37 1 10 2 26 1 40 0 1 1 5 0 18 1 41 2 32 0 40 2 20 0 27 1 34 0 35 2 43 1 22 0 25 1 24 2 43 0 13 1 18 2 36 0 40 2 4 
30 1 47 0 18 1 10 2 25 1 40 0 30 2 2 1 42 2 24 0 43 1 40 2 27 1 47 2 42 0 3 2 27 1 31 2 1 0 23 1 1 0 25 2 10 1 7 2 47 0 19 2 18 0 36 2 24 0 29 2 21 
30 0 48 1 34 0 11 1 29 0 13 2 10 0 40 2 33 0 20 1 18 2 13 1 24 0 38 1 17 0 14 2 43 0 46 2 43 0 1 1 32 0 14 2 24 0 1 1 43 2 5 1 32 2 44 1 17 0 6 1 4 

-------------
